7, 15

0, 18

1, 31

0, 0

7, 30

8, 30

1, 5

3, 31

6, 30

0, 30

3, 18

1, 19

9, 18

1, 11

11, 18

2, 20

2, 31

1, 30

12, 0

12, 1

10, 31

11, 31

8, 7

2, 7

3, 30

10, 18

6, 18

11, 7

4, 18

1, 7

7, 18

9, 30

4, 31

5, 18

2, 49

2, 19

11, 30

3, 7

2, 43

3, 19

3, 20

1, 48

3, 15

1, 15

1, 36

8, 18

8, 31

4, 30

7, 7

2, 18

4, 48

7, 31

9, 31

10, 30

1, 18

0, 15

1, 49

5, 31

6, 31

0, 31

2, 30

8, 48

5, 7

6, 7

5, 30

0, 48

1, 44

0, 7

2, 48

4, 7

1, 20

1, 43

2, 44

7, 48

3, 48

4, 15

6, 48

2, 15

